DIMACS2
80 255 309 264 203 92 187 189 128 201 71 281 205 302 214 98 109 222 9 311 236 271 231 26 91 62 27 310 115 208 152 124 61 229 146 138 14 161 37 172 30 35 210 140 118 68 315 288 44 286 70 75 219 157 101 289 305 79 147 8 51 4 106 73 53 114 207 238 43 226 234 94 318 108 110 122 249 12 24 95 160
p edge 320 1961
e 0 107 2.0
e 1 277 1.0
e 1 0 1.0
e 2 42 1.0
e 3 1 1.0
e 3 241 1.0
e 4 121 20.0
e 4 58 33.0
e 4 20 40.0
e 4 83 35.0
e 4 243 25.0
e 4 301 23.0
e 4 212 45.0
e 4 273 41.0
e 4 0 14.0
e 4 295 4.0
e 4 236 47.0
e 4 191 14.0
e 4 65 36.0
e 4 217 10.0
e 4 168 44.0
e 4 315 43.0
e 4 265 30.0
e 4 229 39.0
e 4 129 46.0
e 4 30 40.0
e 4 85 9.0
e 4 130 17.0
e 4 87 8.0
e 4 174 14.0
e 4 2 35.0
e 5 119 5.0
e 6 234 30.0
e 6 280 4.0
e 6 84 2.0
e 6 12 39.0
e 6 298 9.0
e 6 78 6.0
e 6 275 5.0
e 7 192 1.0
e 8 228 49.0
e 8 1 43.0
e 8 15 19.0
e 8 54 30.0
e 8 41 27.0
e 8 180 5.0
e 8 307 16.0
e 8 35 20.0
e 8 28 25.0
e 8 296 11.0
e 8 234 13.0
e 8 286 18.0
e 8 260 1.0
e 8 247 13.0
e 8 2 33.0
e 8 186 45.0
e 8 78 43.0
e 8 258 38.0
e 8 123 12.0
e 8 69 47.0
e 8 32 45.0
e 8 303 46.0
e 9 16 1.0
e 9 159 44.0
e 9 308 2.0
e 9 75 43.0
e 9 285 45.0
e 9 287 8.0
e 9 137 10.0
e 9 212 45.0
e 9 195 39.0
e 9 310 8.0
e 9 59 37.0
e 9 276 7.0
e 9 227 32.0
e 9 67 14.0
e 9 311 46.0
e 9 90 45.0
e 9 8 18.0
e 9 45 34.0
e 9 313 21.0
e 9 55 31.0
e 9 210 46.0
e 9 211 1.0
e 9 261 21.0
e 9 176 42.0
e 9 170 48.0
e 10 108 22.0
e 10 231 35.0
e 10 54 4.0
e 10 93 1.0
e 11 20 11.0
e 12 269 26.0
e 12 50 2.0
e 12 203 45.0
e 12 107 29.0
e 12 126 46.0
e 12 82 37.0
e 12 79 48.0
e 12 28 14.0
e 12 282 35.0
e 12 131 41.0
e 12 297 40.0
e 12 34 40.0
e 12 47 35.0
e 12 36 30.0
e 12 77 29.0
e 12 299 20.0
e 12 17 7.0
e 12 95 34.0
e 12 262 27.0
e 12 9 24.0
e 12 302 8.0
e 12 192 29.0
e 12 290 33.0
e 13 18 1.0
e 13 133 1.0
e 14 159 1.0
e 14 293 11.0
e 14 91 2.0
e 14 171 44.0
e 14 225 28.0
e 14 73 40.0
e 14 262 1.0
e 14 3 15.0
e 14 231 31.0
e 14 299 3.0
e 14 302 44.0
e 14 185 39.0
e 14 119 29.0
e 14 78 14.0
e 14 100 6.0
e 14 44 24.0
e 14 120 24.0
e 14 200 32.0
e 14 66 10.0
e 14 305 1.0
e 14 45 22.0
e 14 249 15.0
e 14 11 16.0
e 14 313 22.0
e 14 232 35.0
e 15 301 4.0
e 16 79 37.0
e 17 254 2.0
e 18 305 33.0
e 19 271 9.0
e 20 165 5.0
e 20 106 33.0
e 20 107 3.0
e 20 166 1.0
e 21 247 1.0
e 22 181 6.0
e 22 54 8.0
e 22 156 12.0
e 22 123 3.0
e 22 182 5.0
e 22 231 30.0
e 23 140 26.0
e 24 290 37.0
e 24 99 1.0
e 24 182 27.0
e 24 237 6.0
e 24 13 14.0
e 24 16 26.0
e 24 10 20.0
e 24 2 45.0
e 24 293 41.0
e 24 242 48.0
e 24 80 47.0
e 24 159 33.0
e 24 11 17.0
e 24 269 25.0
e 24 207 7.0
e 24 37 42.0
e 24 289 18.0
e 24 55 43.0
e 24 219 16.0
e 24 86 21.0
e 24 301 28.0
e 24 4 31.0
e 24 160 26.0
e 24 150 3.0
e 25 271 5.0
e 26 311 42.0
e 26 12 31.0
e 26 261 15.0
e 26 314 31.0
e 26 300 25.0
e 26 141 33.0
e 26 235 48.0
e 26 244 26.0
e 26 9 10.0
e 26 262 19.0
e 26 145 29.0
e 26 266 48.0
e 26 10 44.0
e 26 31 22.0
e 26 295 7.0
e 26 296 44.0
e 26 143 32.0
e 26 304 36.0
e 26 167 48.0
e 26 177 28.0
e 26 312 33.0
e 26 67 26.0
e 26 236 5.0
e 26 291 45.0
e 26 248 23.0
e 27 117 29.0
e 27 77 36.0
e 27 143 39.0
e 27 177 21.0
e 27 88 1.0
e 27 233 32.0
e 27 148 3.0
e 27 25 22.0
e 27 90 20.0
e 27 50 16.0
e 27 138 39.0
e 27 295 33.0
e 27 252 37.0
e 27 277 12.0
e 27 78 10.0
e 27 129 31.0
e 27 269 35.0
e 27 241 6.0
e 27 224 13.0
e 27 193 17.0
e 27 196 4.0
e 27 221 10.0
e 27 18 14.0
e 27 315 27.0
e 27 234 7.0
e 28 186 1.0
e 29 133 2.0
e 29 310 45.0
e 30 144 15.0
e 30 101 40.0
e 30 247 20.0
e 30 209 22.0
e 30 51 21.0
e 30 210 39.0
e 30 286 39.0
e 30 109 49.0
e 30 103 14.0
e 30 52 9.0
e 30 135 7.0
e 30 88 37.0
e 30 166 13.0
e 30 220 44.0
e 30 58 30.0
e 30 231 45.0
e 30 151 23.0
e 30 228 19.0
e 30 217 5.0
e 30 146 21.0
e 30 200 18.0
e 30 276 22.0
e 30 311 26.0
e 31 117 1.0
e 32 253 1.0
e 33 105 2.0
e 34 133 2.0
e 35 270 16.0
e 35 195 32.0
e 35 81 3.0
e 35 260 19.0
e 35 52 25.0
e 35 291 22.0
e 35 317 1.0
e 35 205 29.0
e 35 41 42.0
e 35 49 22.0
e 35 55 47.0
e 35 166 21.0
e 35 64 34.0
e 35 42 17.0
e 35 309 25.0
e 35 298 20.0
e 35 74 10.0
e 35 206 23.0
e 35 209 43.0
e 35 11 15.0
e 35 79 1.0
e 36 251 2.0
e 37 308 42.0
e 37 181 40.0
e 37 5 7.0
e 37 201 44.0
e 37 232 39.0
e 37 126 25.0
e 37 316 22.0
e 37 141 49.0
e 37 133 30.0
e 37 189 34.0
e 37 134 9.0
e 37 55 25.0
e 37 46 43.0
e 37 96 26.0
e 37 170 17.0
e 37 224 30.0
e 37 253 41.0
e 37 119 4.0
e 37 144 40.0
e 37 284 23.0
e 37 105 13.0
e 37 86 38.0
e 37 123 9.0
e 37 41 22.0
e 38 312 2.0
e 39 127 1.0
e 40 2 1.0
e 41 305 14.0
e 42 312 1.0
e 43 114 20.0
e 43 23 38.0
e 43 123 41.0
e 43 264 29.0
e 43 240 43.0
e 43 204 28.0
e 43 87 14.0
e 43 313 19.0
e 43 161 22.0
e 43 242 28.0
e 43 63 6.0
e 43 185 19.0
e 43 93 13.0
e 43 105 9.0
e 43 6 18.0
e 43 97 5.0
e 43 252 48.0
e 43 196 11.0
e 43 286 35.0
e 43 96 29.0
e 43 285 31.0
e 43 314 40.0
e 43 112 42.0
e 43 40 35.0
e 44 125 14.0
e 44 75 18.0
e 44 3 22.0
e 44 304 18.0
e 44 55 49.0
e 44 252 6.0
e 44 91 39.0
e 44 215 20.0
e 44 223 38.0
e 44 102 35.0
e 44 127 42.0
e 44 229 49.0
e 44 94 9.0
e 44 177 28.0
e 44 45 29.0
e 44 119 40.0
e 44 67 27.0
e 44 240 14.0
e 44 6 47.0
e 44 93 28.0
e 44 283 31.0
e 44 37 14.0
e 44 131 1.0
e 44 24 30.0
e 45 130 2.0
e 46 198 1.0
e 47 91 7.0
e 48 292 1.0
e 49 169 2.0
e 50 18 2.0
e 51 273 48.0
e 51 35 21.0
e 51 109 2.0
e 51 311 33.0
e 51 196 37.0
e 51 4 26.0
e 51 57 48.0
e 51 100 41.0
e 51 199 43.0
e 51 276 23.0
e 51 82 16.0
e 51 251 38.0
e 51 258 2.0
e 51 13 46.0
e 51 285 9.0
e 51 197 34.0
e 51 291 23.0
e 51 270 21.0
e 51 302 27.0
e 51 253 5.0
e 51 278 2.0
e 51 117 24.0
e 52 78 2.0
e 53 196 23.0
e 53 193 20.0
e 53 260 40.0
e 53 185 35.0
e 53 261 4.0
e 53 76 28.0
e 53 210 24.0
e 53 46 46.0
e 53 188 20.0
e 53 186 36.0
e 53 37 4.0
e 53 13 26.0
e 53 263 19.0
e 53 209 26.0
e 53 47 48.0
e 53 264 7.0
e 53 233 14.0
e 53 272 20.0
e 53 158 1.0
e 53 49 30.0
e 53 95 23.0
e 53 131 49.0
e 53 234 29.0
e 53 159 21.0
e 54 227 1.0
e 55 153 1.0
e 56 48 3.0
e 57 211 1.0
e 58 305 45.0
e 58 199 8.0
e 58 65 7.0
e 58 155 1.0
e 59 24 7.0
e 59 168 3.0
e 60 196 1.0
e 61 280 45.0
e 61 4 22.0
e 61 209 24.0
e 61 258 4.0
e 61 107 15.0
e 61 175 15.0
e 61 131 14.0
e 61 276 11.0
e 61 108 18.0
e 61 278 12.0
e 61 47 34.0
e 61 91 34.0
e 61 145 8.0
e 61 210 24.0
e 61 271 26.0
e 61 283 39.0
e 61 141 3.0
e 61 146 28.0
e 61 198 23.0
e 61 213 48.0
e 61 142 16.0
e 61 12 34.0
e 61 63 45.0
e 61 237 31.0
e 62 61 42.0
e 62 141 19.0
e 62 4 12.0
e 62 135 41.0
e 62 313 37.0
e 62 249 29.0
e 62 63 40.0
e 62 3 30.0
e 62 14 39.0
e 62 168 22.0
e 62 9 49.0
e 62 308 37.0
e 62 225 1.0
e 62 263 26.0
e 62 6 25.0
e 62 314 47.0
e 62 178 12.0
e 62 1 10.0
e 62 170 5.0
e 62 238 35.0
e 62 262 22.0
e 62 112 47.0
e 62 26 17.0
e 62 192 44.0
e 63 54 2.0
e 64 225 1.0
e 65 5 1.0
e 66 185 3.0
e 67 57 2.0
e 68 94 10.0
e 68 263 15.0
e 68 38 23.0
e 68 67 2.0
e 68 31 3.0
e 68 145 41.0
e 68 22 8.0
e 68 204 11.0
e 68 16 28.0
e 68 193 44.0
e 68 159 39.0
e 68 169 24.0
e 68 175 9.0
e 68 3 3.0
e 68 307 43.0
e 68 261 23.0
e 68 69 41.0
e 68 318 10.0
e 68 0 42.0
e 68 117 40.0
e 68 289 17.0
e 68 4 13.0
e 68 300 37.0
e 68 142 29.0
e 68 189 18.0
e 69 53 45.0
e 70 90 25.0
e 70 52 21.0
e 70 88 11.0
e 70 253 47.0
e 70 100 33.0
e 70 18 26.0
e 70 95 40.0
e 70 197 17.0
e 70 93 36.0
e 70 2 19.0
e 70 121 40.0
e 70 108 37.0
e 70 318 29.0
e 70 27 18.0
e 70 162 3.0
e 70 199 2.0
e 70 143 26.0
e 70 216 26.0
e 70 48 49.0
e 70 179 3.0
e 70 158 10.0
e 70 56 18.0
e 70 36 35.0
e 70 184 42.0
e 70 194 17.0
e 71 302 32.0
e 71 211 16.0
e 71 56 7.0
e 71 269 2.0
e 71 317 41.0
e 71 155 26.0
e 71 225 42.0
e 71 17 41.0
e 71 108 33.0
e 71 228 15.0
e 71 260 4.0
e 71 126 34.0
e 71 291 3.0
e 71 261 11.0
e 71 213 24.0
e 71 264 9.0
e 71 73 39.0
e 71 199 28.0
e 71 218 33.0
e 71 244 9.0
e 71 90 45.0
e 71 238 47.0
e 71 153 34.0
e 71 249 10.0
e 71 62 47.0
e 72 131 5.0
e 73 169 31.0
e 73 233 12.0
e 73 125 11.0
e 73 65 3.0
e 73 60 43.0
e 73 160 27.0
e 73 283 38.0
e 73 282 22.0
e 73 292 5.0
e 73 149 33.0
e 73 185 36.0
e 73 228 40.0
e 73 18 43.0
e 73 80 5.0
e 73 171 16.0
e 73 269 9.0
e 73 200 35.0
e 73 156 17.0
e 73 151 17.0
e 73 3 30.0
e 74 211 1.0
e 75 20 26.0
e 75 269 12.0
e 75 317 3.0
e 75 88 7.0
e 75 175 21.0
e 75 33 4.0
e 75 131 17.0
e 75 52 17.0
e 75 87 31.0
e 75 142 33.0
e 75 60 15.0
e 75 213 14.0
e 75 158 48.0
e 75 112 31.0
e 75 243 35.0
e 75 6 27.0
e 75 227 33.0
e 75 104 16.0
e 75 272 21.0
e 75 259 27.0
e 75 76 32.0
e 75 170 11.0
e 75 84 47.0
e 76 5 1.0
e 77 76 1.0
e 78 49 1.0
e 79 64 41.0
e 79 108 47.0
e 79 198 36.0
e 79 148 1.0
e 79 212 20.0
e 79 166 49.0
e 79 226 33.0
e 79 229 19.0
e 79 81 17.0
e 79 240 2.0
e 79 277 15.0
e 79 59 4.0
e 79 162 12.0
e 79 302 18.0
e 79 206 24.0
e 79 314 11.0
e 79 171 9.0
e 79 23 12.0
e 79 241 5.0
e 79 66 31.0
e 79 239 15.0
e 79 200 39.0
e 80 35 6.0
e 81 153 1.0
e 82 193 1.0
e 83 210 47.0
e 84 256 1.0
e 85 28 1.0
e 86 247 2.0
e 87 233 2.0
e 88 98 45.0
e 89 245 1.0
e 90 268 2.0
e 90 112 3.0
e 90 6 6.0
e 91 35 33.0
e 91 268 25.0
e 91 86 7.0
e 91 100 26.0
e 91 130 43.0
e 91 17 45.0
e 91 187 6.0
e 91 226 14.0
e 91 215 40.0
e 91 135 21.0
e 91 295 11.0
e 91 43 33.0
e 91 56 31.0
e 91 217 31.0
e 91 126 39.0
e 91 69 35.0
e 91 179 27.0
e 91 311 15.0
e 91 273 45.0
e 91 125 23.0
e 91 119 43.0
e 92 261 39.0
e 92 49 11.0
e 92 294 27.0
e 92 46 15.0
e 92 135 2.0
e 92 150 15.0
e 92 217 42.0
e 92 248 44.0
e 92 123 42.0
e 92 235 47.0
e 92 113 33.0
e 92 318 35.0
e 92 202 27.0
e 92 162 45.0
e 92 157 9.0
e 92 285 25.0
e 92 303 15.0
e 92 112 48.0
e 92 151 17.0
e 92 207 27.0
e 92 262 42.0
e 92 245 38.0
e 92 111 16.0
e 92 175 49.0
e 92 38 19.0
e 93 275 1.0
e 94 219 29.0
e 94 294 43.0
e 94 63 18.0
e 94 41 7.0
e 94 314 28.0
e 94 182 28.0
e 94 194 6.0
e 94 282 20.0
e 94 290 27.0
e 94 224 32.0
e 94 23 31.0
e 94 28 11.0
e 94 236 18.0
e 94 104 26.0
e 94 160 29.0
e 94 256 12.0
e 94 113 19.0
e 94 249 38.0
e 94 25 4.0
e 94 10 14.0
e 94 82 43.0
e 94 302 38.0
e 95 235 32.0
e 95 30 33.0
e 95 13 5.0
e 95 50 14.0
e 95 56 47.0
e 95 118 27.0
e 95 312 48.0
e 95 97 46.0
e 95 89 47.0
e 95 41 24.0
e 95 187 23.0
e 95 165 38.0
e 95 304 12.0
e 95 296 16.0
e 95 309 5.0
e 95 292 6.0
e 95 245 39.0
e 95 114 24.0
e 95 71 18.0
e 95 14 3.0
e 95 75 20.0
e 96 267 2.0
e 97 176 1.0
e 98 57 16.0
e 98 195 4.0
e 98 100 14.0
e 98 118 18.0
e 98 153 18.0
e 98 181 6.0
e 98 131 20.0
e 98 70 24.0
e 98 103 16.0
e 98 104 26.0
e 98 148 14.0
e 98 16 25.0
e 98 242 16.0
e 98 47 13.0
e 98 101 17.0
e 98 30 10.0
e 98 298 9.0
e 98 204 16.0
e 98 29 1.0
e 98 280 34.0
e 98 82 7.0
e 98 236 44.0
e 99 207 32.0
e 99 7 2.0
e 99 53 37.0
e 100 111 1.0
e 101 131 7.0
e 101 286 46.0
e 101 287 40.0
e 101 113 10.0
e 101 75 38.0
e 101 135 3.0
e 101 10 14.0
e 101 212 49.0
e 101 194 42.0
e 101 15 36.0
e 101 64 35.0
e 101 128 17.0
e 101 227 17.0
e 101 7 20.0
e 101 118 33.0
e 101 175 5.0
e 101 228 34.0
e 101 220 9.0
e 101 296 21.0
e 101 189 42.0
e 101 29 46.0
e 101 154 37.0
e 101 235 4.0
e 102 307 7.0
e 103 188 1.0
e 104 137 1.0
e 105 58 1.0
e 106 200 45.0
e 106 284 10.0
e 106 94 38.0
e 106 21 32.0
e 106 105 15.0
e 106 130 31.0
e 106 17 7.0
e 106 208 41.0
e 106 267 32.0
e 106 168 32.0
e 106 285 46.0
e 106 307 28.0
e 106 242 34.0
e 106 7 23.0
e 106 197 45.0
e 106 66 47.0
e 106 274 39.0
e 106 89 30.0
e 106 276 6.0
e 106 147 19.0
e 106 93 12.0
e 106 39 13.0
e 106 149 5.0
e 107 84 2.0
e 108 129 37.0
e 108 136 17.0
e 108 187 34.0
e 108 17 22.0
e 108 229 41.0
e 108 200 47.0
e 108 308 26.0
e 108 238 7.0
e 108 212 38.0
e 108 11 17.0
e 108 160 47.0
e 108 19 46.0
e 108 302 15.0
e 108 264 6.0
e 108 132 4.0
e 108 252 46.0
e 108 118 27.0
e 108 166 4.0
e 108 73 13.0
e 109 158 49.0
e 109 165 39.0
e 109 146 47.0
e 109 300 26.0
e 109 173 6.0
e 109 180 16.0
e 109 49 19.0
e 109 239 1.0
e 109 294 36.0
e 109 50 46.0
e 109 142 24.0
e 109 171 17.0
e 109 283 14.0
e 109 134 34.0
e 109 111 44.0
e 109 71 46.0
e 109 128 17.0
e 109 76 31.0
e 109 288 10.0
e 109 253 47.0
e 109 295 10.0
e 109 137 3.0
e 110 242 40.0
e 110 194 26.0
e 110 192 9.0
e 110 94 31.0
e 110 136 24.0
e 110 247 17.0
e 110 95 30.0
e 110 248 32.0
e 110 96 32.0
e 110 287 11.0
e 110 290 7.0
e 110 120 35.0
e 110 259 40.0
e 110 278 35.0
e 110 297 11.0
e 110 234 18.0
e 110 101 49.0
e 110 254 25.0
e 110 184 19.0
e 110 116 19.0
e 110 186 28.0
e 110 215 39.0
e 110 10 1.0
e 110 138 19.0
e 110 298 4.0
e 111 76 1.0
e 112 237 1.0
e 113 150 1.0
e 114 144 7.0
e 114 113 14.0
e 114 223 6.0
e 114 201 23.0
e 114 134 49.0
e 114 101 12.0
e 114 202 7.0
e 114 168 2.0
e 114 229 45.0
e 114 29 32.0
e 114 248 12.0
e 114 241 37.0
e 114 127 33.0
e 114 273 24.0
e 114 151 24.0
e 114 203 14.0
e 114 251 25.0
e 114 292 30.0
e 114 301 25.0
e 114 75 14.0
e 114 72 47.0
e 114 59 33.0
e 115 273 5.0
e 115 145 23.0
e 115 98 27.0
e 115 272 11.0
e 115 208 11.0
e 115 238 45.0
e 115 30 6.0
e 115 217 23.0
e 115 315 35.0
e 115 79 31.0
e 115 173 9.0
e 115 209 16.0
e 115 248 25.0
e 115 186 9.0
e 115 138 16.0
e 115 61 18.0
e 115 214 20.0
e 115 101 15.0
e 115 140 20.0
e 115 1 33.0
e 115 149 9.0
e 115 243 31.0
e 115 84 18.0
e 116 311 20.0
e 117 23 2.0
e 118 115 32.0
e 118 187 33.0
e 118 150 15.0
e 118 201 22.0
e 118 164 30.0
e 118 83 4.0
e 118 140 20.0
e 118 306 14.0
e 118 9 47.0
e 118 263 45.0
e 118 7 34.0
e 118 111 46.0
e 118 59 43.0
e 118 304 15.0
e 118 160 6.0
e 118 77 38.0
e 118 254 22.0
e 118 107 41.0
e 118 220 24.0
e 118 255 13.0
e 119 300 1.0
e 120 85 2.0
e 121 297 1.0
e 122 121 39.0
e 122 282 28.0
e 122 56 34.0
e 122 219 43.0
e 122 107 13.0
e 122 175 2.0
e 122 178 48.0
e 122 15 20.0
e 122 220 34.0
e 122 301 43.0
e 122 7 39.0
e 122 293 32.0
e 122 67 39.0
e 122 51 37.0
e 122 48 19.0
e 122 184 15.0
e 122 221 42.0
e 122 296 44.0
e 122 310 32.0
e 122 243 16.0
e 122 284 13.0
e 122 99 32.0
e 122 110 33.0
e 122 277 13.0
e 122 254 3.0
e 123 204 3.0
e 124 8 38.0
e 124 97 36.0
e 124 91 44.0
e 124 9 42.0
e 124 274 30.0
e 124 50 9.0
e 124 67 40.0
e 124 62 10.0
e 124 310 49.0
e 124 244 3.0
e 124 113 20.0
e 124 70 8.0
e 124 172 19.0
e 124 21 32.0
e 124 182 42.0
e 124 176 37.0
e 124 58 48.0
e 124 263 46.0
e 124 68 38.0
e 124 149 10.0
e 124 51 41.0
e 124 12 35.0
e 124 285 46.0
e 124 187 37.0
e 124 75 21.0
e 125 54 3.0
e 126 46 1.0
e 127 306 1.0
e 128 315 5.0
e 128 22 35.0
e 128 201 34.0
e 128 210 3.0
e 128 203 38.0
e 128 307 25.0
e 128 174 36.0
e 128 81 16.0
e 128 157 36.0
e 128 244 23.0
e 128 42 10.0
e 128 125 43.0
e 128 152 45.0
e 128 211 7.0
e 128 149 45.0
e 128 299 48.0
e 128 183 4.0
e 128 108 11.0
e 128 208 28.0
e 128 103 34.0
e 128 82 46.0
e 128 8 3.0
e 129 80 1.0
e 130 163 3.0
e 131 162 3.0
e 132 257 1.0
e 133 146 5.0
e 134 203 31.0
e 135 241 2.0
e 136 291 1.0
e 137 275 1.0
e 138 237 48.0
e 138 264 35.0
e 138 12 47.0
e 138 75 4.0
e 138 292 11.0
e 138 118 1.0
e 138 145 16.0
e 138 254 22.0
e 138 287 27.0
e 138 42 15.0
e 138 257 28.0
e 138 154 45.0
e 138 165 11.0
e 138 232 37.0
e 138 13 13.0
e 138 126 6.0
e 138 277 49.0
e 138 164 12.0
e 138 278 11.0
e 138 258 23.0
e 138 288 40.0
e 138 279 24.0
e 139 74 1.0
e 140 297 48.0
e 140 244 45.0
e 140 15 22.0
e 140 210 30.0
e 140 58 4.0
e 140 12 37.0
e 140 264 3.0
e 140 271 26.0
e 140 254 2.0
e 140 201 27.0
e 140 287 43.0
e 140 302 23.0
e 140 14 5.0
e 140 51 11.0
e 140 293 14.0
e 140 279 9.0
e 140 206 15.0
e 140 21 11.0
e 140 259 7.0
e 140 174 6.0
e 140 0 45.0
e 140 294 8.0
e 141 95 43.0
e 142 96 1.0
e 143 272 1.0
e 144 221 1.0
e 145 109 48.0
e 146 17 40.0
e 146 210 48.0
e 146 53 18.0
e 146 314 48.0
e 146 304 33.0
e 146 207 23.0
e 146 129 1.0
e 146 161 21.0
e 146 191 32.0
e 146 293 31.0
e 146 163 32.0
e 146 147 18.0
e 146 194 40.0
e 146 138 43.0
e 146 315 29.0
e 146 37 33.0
e 146 105 18.0
e 146 101 39.0
e 146 228 17.0
e 146 47 30.0
e 147 22 3.0
e 147 244 3.0
e 147 108 17.0
e 147 173 17.0
e 147 66 14.0
e 147 169 10.0
e 147 227 43.0
e 147 279 3.0
e 147 38 5.0
e 147 318 37.0
e 147 170 8.0
e 147 307 6.0
e 147 92 28.0
e 147 94 38.0
e 147 308 14.0
e 147 214 21.0
e 147 266 28.0
e 147 188 38.0
e 147 239 41.0
e 147 137 2.0
e 147 120 36.0
e 147 183 28.0
e 148 176 1.0
e 149 65 1.0
e 150 65 1.0
e 151 50 1.0
e 152 88 29.0
e 152 164 15.0
e 152 190 41.0
e 152 238 35.0
e 152 274 19.0
e 152 294 26.0
e 152 264 22.0
e 152 81 1.0
e 152 187 10.0
e 152 19 7.0
e 152 229 27.0
e 152 40 42.0
e 152 176 14.0
e 152 172 41.0
e 152 302 33.0
e 152 194 19.0
e 152 239 16.0
e 152 184 36.0
e 152 197 36.0
e 152 41 47.0
e 152 150 2.0
e 152 68 20.0
e 153 187 23.0
e 154 0 1.0
e 155 143 2.0
e 156 34 2.0
e 157 74 12.0
e 157 106 6.0
e 157 318 6.0
e 157 257 48.0
e 157 168 34.0
e 157 256 30.0
e 157 23 47.0
e 157 245 2.0
e 157 156 4.0
e 157 0 42.0
e 157 317 45.0
e 157 124 10.0
e 157 152 34.0
e 157 79 6.0
e 157 26 46.0
e 157 182 35.0
e 157 172 4.0
e 157 279 15.0
e 157 314 9.0
e 157 294 45.0
e 157 179 12.0
e 157 238 25.0
e 157 80 16.0
e 158 33 1.0
e 159 299 10.0
e 160 43 6.0
e 160 57 34.0
e 160 35 5.0
e 160 146 8.0
e 160 164 40.0
e 160 89 25.0
e 160 246 47.0
e 160 180 27.0
e 160 139 42.0
e 160 23 39.0
e 160 191 41.0
e 160 270 40.0
e 160 19 43.0
e 160 51 48.0
e 160 120 45.0
e 160 1 44.0
e 160 298 34.0
e 160 8 30.0
e 160 102 39.0
e 160 280 27.0
e 161 86 22.0
e 161 34 34.0
e 161 19 26.0
e 161 268 13.0
e 161 258 12.0
e 161 14 7.0
e 161 37 3.0
e 161 153 39.0
e 161 181 34.0
e 161 106 48.0
e 161 57 24.0
e 161 238 42.0
e 161 187 25.0
e 161 279 21.0
e 161 206 43.0
e 161 121 17.0
e 161 182 3.0
e 161 72 32.0
e 161 83 9.0
e 161 87 29.0
e 161 234 6.0
e 161 166 47.0
e 161 305 43.0
e 162 275 1.0
e 163 18 1.0
e 164 5 1.0
e 165 42 1.0
e 166 62 32.0
e 167 114 41.0
e 168 184 2.0
e 169 282 1.0
e 170 89 1.0
e 171 303 5.0
e 172 28 44.0
e 172 280 17.0
e 172 201 35.0
e 172 150 8.0
e 172 189 28.0
e 172 229 8.0
e 172 66 17.0
e 172 174 16.0
e 172 143 18.0
e 172 281 26.0
e 172 61 6.0
e 172 80 40.0
e 172 249 4.0
e 172 314 38.0
e 172 33 14.0
e 172 51 14.0
e 172 142 32.0
e 172 282 43.0
e 172 283 2.0
e 172 305 49.0
e 172 153 40.0
e 172 154 21.0
e 173 207 8.0
e 174 19 1.0
e 175 249 36.0
e 176 180 1.0
e 177 221 1.0
e 178 243 1.0
e 179 222 10.0
e 180 128 44.0
e 181 193 1.0
e 182 32 3.0
e 183 28 1.0
e 184 306 1.0
e 185 123 4.0
e 186 73 37.0
e 187 146 3.0
e 187 286 12.0
e 187 119 6.0
e 187 301 33.0
e 187 14 4.0
e 187 143 12.0
e 187 52 18.0
e 187 19 37.0
e 187 20 3.0
e 187 281 39.0
e 187 220 15.0
e 187 169 43.0
e 187 59 22.0
e 187 302 24.0
e 187 306 3.0
e 187 172 35.0
e 188 193 1.0
e 189 119 34.0
e 189 69 45.0
e 189 154 5.0
e 189 83 17.0
e 189 8 49.0
e 189 20 7.0
e 189 161 3.0
e 189 53 27.0
e 189 139 36.0
e 189 268 29.0
e 189 90 20.0
e 189 267 28.0
e 189 218 1.0
e 189 258 28.0
e 189 98 24.0
e 189 146 12.0
e 189 118 18.0
e 189 70 8.0
e 189 314 44.0
e 189 183 27.0
e 189 114 37.0
e 190 271 34.0
e 191 120 2.0
e 192 121 1.0
e 193 5 1.0
e 194 137 1.0
e 195 249 28.0
e 196 152 41.0
e 197 183 1.0
e 198 186 1.0
e 199 299 1.0
e 200 145 2.0
e 201 117 21.0
e 201 212 25.0
e 201 104 18.0
e 201 255 37.0
e 201 27 14.0
e 201 258 41.0
e 201 24 20.0
e 201 8 49.0
e 201 152 8.0
e 201 236 39.0
e 201 87 38.0
e 201 115 31.0
e 201 102 27.0
e 201 57 44.0
e 201 20 49.0
e 201 310 8.0
e 201 125 1.0
e 201 138 33.0
e 201 25 44.0
e 202 288 4.0
e 202 152 18.0
e 203 309 37.0
e 203 284 7.0
e 203 110 41.0
e 203 24 40.0
e 203 53 25.0
e 203 20 30.0
e 203 58 28.0
e 203 146 16.0
e 203 21 31.0
e 203 181 9.0
e 203 152 46.0
e 203 133 21.0
e 203 68 23.0
e 203 301 37.0
e 203 135 39.0
e 203 22 39.0
e 203 272 48.0
e 203 260 40.0
e 203 139 31.0
e 203 164 24.0
e 203 140 25.0
e 204 141 2.0
e 205 262 41.0
e 205 305 48.0
e 205 81 43.0
e 205 226 22.0
e 205 43 36.0
e 205 24 46.0
e 205 92 2.0
e 205 281 44.0
e 205 307 2.0
e 205 106 22.0
e 205 187 23.0
e 205 249 23.0
e 205 197 36.0
e 205 224 21.0
e 205 167 7.0
e 205 110 15.0
e 205 286 33.0
e 205 152 8.0
e 205 201 43.0
e 205 284 16.0
e 205 301 38.0
e 205 172 32.0
e 205 61 43.0
e 205 20 5.0
e 206 100 1.0
e 207 111 40.0
e 207 47 13.0
e 207 301 37.0
e 207 21 31.0
e 207 97 32.0
e 207 161 37.0
e 207 202 43.0
e 207 233 7.0
e 207 79 12.0
e 207 68 34.0
e 207 154 25.0
e 207 22 2.0
e 207 310 11.0
e 207 245 46.0
e 207 27 19.0
e 207 213 6.0
e 207 84 13.0
e 207 249 13.0
e 207 25 32.0
e 208 74 11.0
e 208 133 19.0
e 208 301 16.0
e 208 245 28.0
e 208 122 45.0
e 208 246 27.0
e 208 22 23.0
e 208 259 40.0
e 208 256 30.0
e 208 90 4.0
e 208 36 43.0
e 208 108 3.0
e 208 95 3.0
e 208 124 47.0
e 208 255 15.0
e 208 281 34.0
e 208 136 36.0
e 208 129 49.0
e 208 235 20.0
e 208 288 30.0
e 208 157 45.0
e 208 270 49.0
e 209 8 39.0
e 210 297 30.0
e 210 29 12.0
e 210 318 40.0
e 210 195 2.0
e 210 71 29.0
e 210 205 42.0
e 210 34 37.0
e 210 24 3.0
e 210 167 27.0
e 210 187 45.0
e 210 307 5.0
e 210 172 7.0
e 210 264 29.0
e 210 177 48.0
e 210 255 36.0
e 210 288 49.0
e 211 139 1.0
e 212 77 1.0
e 213 51 43.0
e 214 142 11.0
e 214 85 8.0
e 214 58 38.0
e 214 255 48.0
e 214 267 39.0
e 214 257 2.0
e 214 155 47.0
e 214 189 39.0
e 214 94 25.0
e 214 207 11.0
e 214 172 32.0
e 214 226 30.0
e 214 190 19.0
e 214 26 1.0
e 214 27 19.0
e 214 128 14.0
e 214 72 19.0
e 214 281 38.0
e 214 29 21.0
e 214 132 7.0
e 214 317 12.0
e 214 43 13.0
e 214 109 26.0
e 215 78 1.0
e 216 236 42.0
e 217 108 16.0
e 217 229 15.0
e 218 72 1.0
e 219 240 23.0
e 219 288 49.0
e 219 26 40.0
e 219 53 19.0
e 219 34 18.0
e 219 58 19.0
e 219 267 34.0
e 219 96 46.0
e 219 36 19.0
e 219 59 16.0
e 219 27 18.0
e 219 90 11.0
e 219 91 30.0
e 219 271 16.0
e 219 315 47.0
e 219 30 44.0
e 219 318 40.0
e 219 301 26.0
e 219 85 14.0
e 219 208 33.0
e 219 130 27.0
e 220 307 10.0
e 221 16 1.0
e 222 49 4.0
e 222 26 1.0
e 222 134 14.0
e 222 30 6.0
e 222 125 17.0
e 222 79 14.0
e 222 302 27.0
e 222 85 30.0
e 222 86 12.0
e 222 92 34.0
e 222 80 14.0
e 222 281 8.0
e 222 60 28.0
e 222 201 7.0
e 222 31 43.0
e 222 81 25.0
e 222 155 19.0
e 222 32 20.0
e 222 90 22.0
e 222 215 6.0
e 222 246 13.0
e 222 45 28.0
e 222 268 31.0
e 223 69 2.0
e 224 123 2.0
e 225 278 1.0
e 226 293 28.0
e 226 284 10.0
e 226 249 24.0
e 226 187 21.0
e 226 122 15.0
e 226 146 23.0
e 226 70 40.0
e 226 136 7.0
e 226 179 30.0
e 226 43 30.0
e 226 229 13.0
e 226 128 43.0
e 226 119 6.0
e 226 271 10.0
e 226 71 37.0
e 226 60 29.0
e 226 44 27.0
e 226 250 17.0
e 226 115 2.0
e 226 31 19.0
e 226 264 14.0
e 227 39 2.0
e 228 46 1.0
e 229 83 9.0
e 229 246 18.0
e 229 261 32.0
e 229 173 29.0
e 229 31 45.0
e 229 203 42.0
e 229 187 37.0
e 229 39 7.0
e 229 90 17.0
e 229 188 30.0
e 229 33 31.0
e 229 60 34.0
e 229 32 7.0
e 229 35 37.0
e 229 68 31.0
e 229 155 30.0
e 230 147 36.0
e 230 32 1.0
e 231 64 7.0
e 231 79 42.0
e 231 97 8.0
e 231 229 34.0
e 231 138 34.0
e 231 305 36.0
e 231 191 10.0
e 231 69 31.0
e 231 147 42.0
e 231 266 6.0
e 231 209 6.0
e 231 230 11.0
e 231 274 11.0
e 231 303 48.0
e 231 259 49.0
e 231 172 37.0
e 231 218 34.0
e 231 306 9.0
e 231 288 48.0
e 231 106 24.0
e 231 302 29.0
e 232 87 1.0
e 233 272 1.0
e 234 233 34.0
e 234 146 15.0
e 234 116 31.0
e 234 33 13.0
e 234 215 29.0
e 234 229 35.0
e 234 35 26.0
e 234 302 25.0
e 234 314 44.0
e 234 85 31.0
e 234 249 3.0
e 234 118 45.0
e 234 318 20.0
e 234 139 35.0
e 234 204 42.0
e 234 36 7.0
e 234 69 29.0
e 234 303 22.0
e 234 101 41.0
e 235 271 41.0
e 236 290 32.0
e 236 86 28.0
e 236 231 23.0
e 236 114 21.0
e 236 48 44.0
e 236 173 3.0
e 236 305 29.0
e 236 205 17.0
e 236 226 6.0
e 236 97 8.0
e 236 147 38.0
e 236 257 27.0
e 236 35 13.0
e 236 174 35.0
e 236 195 15.0
e 236 259 44.0
e 236 311 25.0
e 236 91 2.0
e 236 99 7.0
e 237 171 2.0
e 238 39 6.0
e 238 219 16.0
e 238 37 7.0
e 238 140 24.0
e 238 302 7.0
e 238 91 18.0
e 238 147 20.0
e 238 124 14.0
e 238 61 43.0
e 238 98 2.0
e 238 96 7.0
e 238 156 15.0
e 238 38 10.0
e 238 266 1.0
e 238 187 44.0
e 238 274 27.0
e 238 286 48.0
e 238 181 42.0
e 239 55 1.0
e 240 111 1.0
e 241 151 1.0
e 242 118 27.0
e 243 63 1.0
e 244 266 1.0
e 245 127 1.0
e 246 305 12.0
e 247 77 1.0
e 248 169 2.0
e 249 318 17.0
e 249 92 37.0
e 249 188 3.0
e 249 38 47.0
e 249 39 40.0
e 249 41 20.0
e 249 189 32.0
e 249 306 37.0
e 249 222 36.0
e 249 162 46.0
e 249 122 17.0
e 249 95 17.0
e 249 246 17.0
e 249 156 6.0
e 250 313 1.0
e 251 56 1.0
e 252 144 1.0
e 253 180 1.0
e 254 8 7.0
e 255 187 37.0
e 255 39 26.0
e 255 91 31.0
e 255 40 31.0
e 255 156 34.0
e 255 129 25.0
e 255 281 27.0
e 255 41 13.0
e 255 128 6.0
e 255 305 41.0
e 255 231 14.0
e 255 266 31.0
e 255 48 46.0
e 255 157 26.0
e 255 147 32.0
e 255 241 11.0
e 255 43 22.0
e 255 92 28.0
e 255 44 2.0
e 255 94 13.0
e 256 302 35.0
e 257 11 1.0
e 258 152 3.0
e 259 73 42.0
e 260 207 20.0
e 260 136 8.0
e 261 183 5.0
e 262 291 2.0
e 263 296 2.0
e 264 21 9.0
e 264 314 8.0
e 264 271 42.0
e 264 260 23.0
e 264 128 39.0
e 264 40 36.0
e 264 305 41.0
e 264 315 8.0
e 264 69 29.0
e 264 95 5.0
e 264 70 15.0
e 264 147 3.0
e 264 274 9.0
e 264 195 44.0
e 264 236 48.0
e 264 157 7.0
e 265 51 27.0
e 265 61 29.0
e 265 62 22.0
e 266 305 9.0
e 267 295 1.0
e 268 66 1.0
e 269 300 1.0
e 270 144 1.0
e 271 270 32.0
e 271 157 14.0
e 271 223 24.0
e 271 222 43.0
e 271 40 34.0
e 271 167 32.0
e 271 217 46.0
e 271 95 41.0
e 271 120 10.0
e 271 307 14.0
e 271 98 11.0
e 271 128 19.0
e 271 44 27.0
e 271 99 43.0
e 271 62 17.0
e 271 249 43.0
e 272 219 26.0
e 273 98 14.0
e 274 98 18.0
e 275 248 1.0
e 276 275 1.0
e 277 59 3.0
e 278 15 1.0
e 279 165 1.0
e 280 73 45.0
e 281 252 20.0
e 281 260 1.0
e 281 98 1.0
e 281 206 14.0
e 281 203 2.0
e 281 118 3.0
e 281 44 42.0
e 281 116 30.0
e 281 157 20.0
e 281 71 36.0
e 281 201 36.0
e 281 45 23.0
e 281 286 42.0
e 281 158 15.0
e 281 288 46.0
e 281 99 4.0
e 281 161 37.0
e 281 223 16.0
e 282 198 1.0
e 283 33 2.0
e 284 34 1.0
e 285 311 14.0
e 286 164 25.0
e 286 99 40.0
e 286 158 22.0
e 286 246 17.0
e 286 44 14.0
e 286 189 21.0
e 286 288 45.0
e 286 206 5.0
e 286 122 9.0
e 286 62 20.0
e 286 302 6.0
e 286 159 46.0
e 286 160 29.0
e 286 303 22.0
e 286 201 6.0
e 286 45 11.0
e 286 224 14.0
e 287 199 1.0
e 288 123 41.0
e 288 130 30.0
e 288 72 19.0
e 288 159 39.0
e 288 102 14.0
e 288 174 33.0
e 288 225 3.0
e 288 251 18.0
e 288 226 20.0
e 288 218 9.0
e 288 114 22.0
e 288 73 25.0
e 288 177 32.0
e 288 103 31.0
e 288 160 6.0
e 288 201 4.0
e 289 38 16.0
e 289 302 40.0
e 289 303 26.0
e 289 73 46.0
e 289 102 45.0
e 289 202 12.0
e 289 159 14.0
e 289 315 2.0
e 289 309 17.0
e 289 305 5.0
e 289 103 25.0
e 289 308 2.0
e 289 104 42.0
e 289 189 16.0
e 289 210 49.0
e 289 124 35.0
e 289 221 24.0
e 289 167 11.0
e 289 106 49.0
e 289 271 37.0
e 289 108 37.0
e 289 131 27.0
e 290 213 1.0
e 291 30 46.0
e 292 173 2.0
e 293 252 2.0
e 294 35 43.0
e 295 302 9.0
e 296 54 1.0
e 297 127 1.0
e 298 148 1.0
e 299 316 1.0
e 300 192 1.0
e 301 106 18.0
e 302 64 37.0
e 302 104 5.0
e 302 73 23.0
e 302 178 2.0
e 302 249 33.0
e 302 167 30.0
e 302 109 46.0
e 303 210 35.0
e 304 258 3.0
e 305 212 16.0
e 305 288 42.0
e 305 108 23.0
e 305 159 27.0
e 305 281 45.0
e 305 109 14.0
e 305 250 8.0
e 305 229 16.0
e 305 178 3.0
e 305 122 49.0
e 305 114 31.0
e 306 12 19.0
e 307 289 2.0
e 308 148 7.0
e 309 256 36.0
e 309 109 30.0
e 309 237 5.0
e 309 110 16.0
e 309 159 27.0
e 309 207 28.0
e 309 160 39.0
e 309 138 6.0
e 309 73 48.0
e 309 114 32.0
e 309 115 21.0
e 309 302 15.0
e 309 281 3.0
e 309 116 4.0
e 309 118 23.0
e 309 303 27.0
e 309 124 42.0
e 309 131 15.0
e 309 161 33.0
e 309 132 2.0
e 309 226 28.0
e 310 115 33.0
e 310 202 26.0
e 310 238 12.0
e 310 219 38.0
e 310 109 33.0
e 310 281 12.0
e 310 110 40.0
e 310 305 8.0
e 310 302 21.0
e 310 116 45.0
e 310 222 39.0
e 310 131 47.0
e 310 208 17.0
e 310 132 6.0
e 310 271 32.0
e 310 134 12.0
e 310 138 13.0
e 310 140 48.0
e 310 160 43.0
e 311 94 1.0
e 311 271 45.0
e 311 140 46.0
e 311 202 1.0
e 311 115 20.0
e 311 160 27.0
e 311 132 37.0
e 311 134 15.0
e 311 161 8.0
e 311 163 42.0
e 311 189 17.0
e 311 178 22.0
e 311 210 32.0
e 311 179 40.0
e 311 180 4.0
e 311 309 46.0
e 311 190 35.0
e 312 141 1.0
e 313 159 5.0
e 314 222 28.0
e 315 25 42.0
e 315 116 16.0
e 315 281 4.0
e 315 286 1.0
e 315 249 26.0
e 315 140 5.0
e 315 229 23.0
e 315 163 24.0
e 315 178 34.0
e 315 251 8.0
e 315 202 35.0
e 315 179 27.0
e 315 271 47.0
e 315 190 6.0
e 315 191 12.0
e 315 203 14.0
e 315 205 33.0
e 316 89 1.0
e 317 163 1.0
e 318 74 2.0
e 318 286 18.0
e 318 229 8.0
e 318 115 14.0
e 318 217 49.0
e 318 302 17.0
e 318 203 36.0
e 318 179 16.0
e 318 190 13.0
e 318 310 8.0
e 318 205 45.0
e 318 207 23.0
e 318 305 10.0
e 318 240 9.0
e 318 311 44.0
e 318 208 12.0
e 319 198 1.0
